Version identifier: 22.1.0.0 | 2022-03-09 | 1a383f8ce
CPXPARAM_Threads                                 1
CPXPARAM_MIP_Strategy_VariableSelect             3
CPXPARAM_TimeLimit                               599.99996438300002
1 of 1 MIP starts provided solutions.
MIP start 'm1' defined initial solution with objective 200.0000.
Tried aggregator 1 time.
MIP Presolve eliminated 18 rows and 924 columns.
MIP Presolve modified 5 coefficients.
Reduced MIP has 2458 rows, 2772 columns, and 31866 nonzeros.
Reduced MIP has 2772 binaries, 0 generals, 0 SOSs, and 0 indicators.
Presolve time = 0.02 sec. (18.85 ticks)
Probing time = 0.00 sec. (2.76 ticks)
Tried aggregator 1 time.
Detecting symmetries...
Reduced MIP has 2458 rows, 2772 columns, and 31866 nonzeros.
Reduced MIP has 2772 binaries, 0 generals, 0 SOSs, and 0 indicators.
Presolve time = 0.02 sec. (18.32 ticks)
Probing time = 0.00 sec. (2.76 ticks)
Clique table members: 1529.
MIP emphasis: balance optimality and feasibility.
MIP search method: dynamic search.
Parallel mode: none, using 1 thread.
Root relaxation solution time = 0.05 sec. (43.46 ticks)

        Nodes                                         Cuts/
   Node  Left     Objective  IInf  Best Integer    Best Bound    ItCnt     Gap

*     0+    0                          200.0000     2772.0000              --- 
      0     0      308.0000    79      200.0000      308.0000      926   54.00%
*     0+    0                          308.0000      308.0000             0.00%
      0     0        cutoff            308.0000      308.0000      926    0.00%
Elapsed time = 0.23 sec. (191.71 ticks, tree = 0.01 MB, solutions = 2)

Root node processing (before b&c):
  Real time             =    0.23 sec. (191.86 ticks)
Sequential b&c:
  Real time             =    0.00 sec. (0.00 ticks)
                          ------------
Total (root+branch&cut) =    0.23 sec. (191.86 ticks)
Primal:	308
Dual:	308
Status:	Optimal
Time:	0.24
Sequence:
	5
	0
	9
	6
	9
	5
	9
	6
	9
	9
	9
	9
	6
	9
	9
	9
	6
	9
	9
	9
	9
	6
	9
	9
	9
	9
	6
	9
	9
	9
	6
	9
	10
	9
	9
	6
	9
	3
	9
	6
	9
	9
	9
	6
	9
	9
	9
	6
	9
	9
	9
	6
	9
	10
	9
	9
	6
	9
	9
	9
	6
	9
	9
	9
	6
	9
	5
	9
	9
	6
	9
	5
	9
	6
	9
	9
	5
	9
	9
	5
	9
	9
	5
	9
	5
	9
	5
	9
	5
	9
	5
	9
	5
	9
	5
	9
	5
	9
	5
	2
	6
	9
	5
	9
	1
	9
	6
	9
	5
	9
	6
	2
	5
	9
	6
	9
	0
	9
	6
	9
	9
	9
	6
	9
	9
	9
	2
	9
	9
	6
	9
	9
	9
	9
	6
	9
	9
	9
	6
	2
	9
	9
	9
	6
	9
	9
	9
	5
	9
	9
	9
	9
	6
	9
	4
	4
	1
	4
	4
	9
	6
	2
	9
	4
	4
	2
	5
	9
	0
	9
	6
	9
	5
	9
	4
	1
	4
	0
	6
	9
	5
	0
	6
	9
	0
	4
	6
	0
	9
	1
	4
	6
	9
	5
	0
	6
	4
	0
	5
	9
	10
	0
	6
	4
	3
	9
	6
	0
	5
	4
	0
	6
	4
	1
	4
	0
	9
	6
	4
	1
	2
	6
	9
	5
	0
	6
	9
	5
	2
	6
	4
	0
	1
	9
	5
	9
	6
	0
	5
	4
	3
	9
	5
	0
	4
	5
	9
	6
	4
	9
	0
	9
	6
	9
	9
	5
	9
	6
	9
	3
	9
	6
	0
	4
	9
	6
	4
	1
	9
	6
	0
	5
	9
	6
	4
	9
	9
	6
	4
	1
	4
	4
	1
	9
	4
	4
	9
	4
	4
	0
	10
	4
	4
	9
	6
	4
	9
	9
	6
	0
	5
	9
	5
	0
	6
	9
	0
	5
